\ ExactEBRP compact MILP generated from C++ command-line runner
Minimize
 obj: G + 0.14999999999999999 e_1 + 0.14999999999999999 e_2
Subject To
 c1: x_0_0_1 + x_0_0_2 - x_0_1_0 - x_0_2_0 = 0
 c2: x_0_0_1 + x_0_0_2 <= 1
 c3: x_0_0_1 + x_0_2_1 - z_0_1 = 0
 c4: x_0_1_0 + x_0_1_2 - z_0_1 = 0
 c5: x_0_0_2 + x_0_1_2 - z_0_2 = 0
 c6: x_0_2_0 + x_0_2_1 - z_0_2 = 0
 c7: z_0_1 <= 1
 c8: z_0_2 <= 1
 c9: ord_0_1 - z_0_1 >= 0
 c10: ord_0_1 - 2 z_0_1 <= 0
 c11: ord_0_2 - z_0_2 >= 0
 c12: ord_0_2 - 2 z_0_2 <= 0
 c13: ord_0_1 - ord_0_2 + 2 x_0_1_2 <= 1
 c14: - ord_0_1 + ord_0_2 + 2 x_0_2_1 <= 1
 c15: p_0_1 - z_0_1 <= 0
 c16: d_0_1 - z_0_1 <= 0
 c17: mode_0_1 - z_0_1 <= 0
 c18: - mode_0_1 + p_0_1 <= 0
 c19: d_0_1 + mode_0_1 - z_0_1 <= 0
 c20: d_0_1 + p_0_1 - z_0_1 >= 0
 c21: load_0_1 - z_0_1 <= 0
 c22: p_0_2 - z_0_2 <= 0
 c23: d_0_2 - z_0_2 <= 0
 c24: mode_0_2 - z_0_2 <= 0
 c25: - mode_0_2 + p_0_2 <= 0
 c26: d_0_2 + mode_0_2 - z_0_2 <= 0
 c27: d_0_2 + p_0_2 - z_0_2 >= 0
 c28: load_0_2 - z_0_2 <= 0
 c29: d_0_1 + load_0_1 - p_0_1 + x_0_0_1 <= 1
 c30: d_0_1 + load_0_1 - p_0_1 - x_0_0_1 >= -1
 c31: d_0_2 + load_0_2 - p_0_2 + x_0_0_2 <= 1
 c32: d_0_2 + load_0_2 - p_0_2 - x_0_0_2 >= -1
 c33: d_0_2 - load_0_1 + load_0_2 - p_0_2 + x_0_1_2 <= 1
 c34: d_0_2 - load_0_1 + load_0_2 - p_0_2 - x_0_1_2 >= -1
 c35: d_0_1 + load_0_1 - load_0_2 - p_0_1 + x_0_2_1 <= 1
 c36: d_0_1 + load_0_1 - load_0_2 - p_0_1 - x_0_2_1 >= -1
 c37: - d_0_1 - d_0_2 + p_0_1 + p_0_2 >= 0
 c38: 120 p_0_1 + 120 p_0_2 + 0.66666666666666663 x_0_0_1 + 0.66666666666666663 x_0_0_2 + 0.66666666666666663 x_0_1_0 + 0.94280904158206347 x_0_1_2 + 0.66666666666666663 x_0_2_0 + 0.94280904158206347 x_0_2_1 <= 3600
 c39: Y_1 - d_0_1 + p_0_1 = 5
 c40: - 0.20000000000000001 Y_1 + r_1 = 0
 c41: e_1 - r_1 >= -1
 c42: e_1 + r_1 >= 1
 c43: Y_2 - d_0_2 + p_0_2 = 5
 c44: - 0.20000000000000001 Y_2 + r_2 = 0
 c45: e_2 - r_2 >= -1
 c46: e_2 + r_2 >= 1
 c47: h_1_2 - r_1 + r_2 >= 0
 c48: h_1_2 + r_1 - r_2 >= 0
 c49: Y_1 - bit_1_0 - 2 bit_1_1 - 4 bit_1_2 - 8 bit_1_3 = 0
 c50: - prod_1_0 - 2 prod_1_1 - 4 prod_1_2 - 8 prod_1_3 + zprod_1 = 0
 c51: - G + prod_1_0 <= 0
 c52: - bit_1_0 + prod_1_0 <= 0
 c53: - G - bit_1_0 + prod_1_0 >= -1
 c54: - G + prod_1_1 <= 0
 c55: - bit_1_1 + prod_1_1 <= 0
 c56: - G - bit_1_1 + prod_1_1 >= -1
 c57: - G + prod_1_2 <= 0
 c58: - bit_1_2 + prod_1_2 <= 0
 c59: - G - bit_1_2 + prod_1_2 >= -1
 c60: - G + prod_1_3 <= 0
 c61: - bit_1_3 + prod_1_3 <= 0
 c62: - G - bit_1_3 + prod_1_3 >= -1
 c63: Y_2 - bit_2_0 - 2 bit_2_1 - 4 bit_2_2 - 8 bit_2_3 = 0
 c64: - prod_2_0 - 2 prod_2_1 - 4 prod_2_2 - 8 prod_2_3 + zprod_2 = 0
 c65: - G + prod_2_0 <= 0
 c66: - bit_2_0 + prod_2_0 <= 0
 c67: - G - bit_2_0 + prod_2_0 >= -1
 c68: - G + prod_2_1 <= 0
 c69: - bit_2_1 + prod_2_1 <= 0
 c70: - G - bit_2_1 + prod_2_1 >= -1
 c71: - G + prod_2_2 <= 0
 c72: - bit_2_2 + prod_2_2 <= 0
 c73: - G - bit_2_2 + prod_2_2 >= -1
 c74: - G + prod_2_3 <= 0
 c75: - bit_2_3 + prod_2_3 <= 0
 c76: - G - bit_2_3 + prod_2_3 >= -1
 c77: - h_1_2 + 0.40000000000000002 zprod_1 + 0.40000000000000002 zprod_2 >= 0
Bounds
 0 <= G <= 1
 0 <= Y_1 <= 10
 0 <= Y_2 <= 10
 0 <= bit_1_0 <= 1
 0 <= bit_1_1 <= 1
 0 <= bit_1_2 <= 1
 0 <= bit_1_3 <= 1
 0 <= bit_2_0 <= 1
 0 <= bit_2_1 <= 1
 0 <= bit_2_2 <= 1
 0 <= bit_2_3 <= 1
 0 <= d_0_1 <= 1
 0 <= d_0_2 <= 1
 0 <= e_1 <= 1
 0 <= e_2 <= 1
 0 <= h_1_2 <= 4
 0 <= load_0_1 <= 1
 0 <= load_0_2 <= 1
 0 <= mode_0_1 <= 1
 0 <= mode_0_2 <= 1
 0 <= ord_0_1 <= 2
 0 <= ord_0_2 <= 2
 0 <= p_0_1 <= 1
 0 <= p_0_2 <= 1
 0 <= prod_1_0 <= 1
 0 <= prod_1_1 <= 1
 0 <= prod_1_2 <= 1
 0 <= prod_1_3 <= 1
 0 <= prod_2_0 <= 1
 0 <= prod_2_1 <= 1
 0 <= prod_2_2 <= 1
 0 <= prod_2_3 <= 1
 0 <= r_1 <= 2
 0 <= r_2 <= 2
 0 <= x_0_0_1 <= 1
 0 <= x_0_0_2 <= 1
 0 <= x_0_1_0 <= 1
 0 <= x_0_1_2 <= 1
 0 <= x_0_2_0 <= 1
 0 <= x_0_2_1 <= 1
 0 <= z_0_1 <= 1
 0 <= z_0_2 <= 1
 0 <= zprod_1 <= 10
 0 <= zprod_2 <= 10
Generals
 Y_1
 Y_2
 d_0_1
 d_0_2
 load_0_1
 load_0_2
 p_0_1
 p_0_2
Binaries
 bit_1_0
 bit_1_1
 bit_1_2
 bit_1_3
 bit_2_0
 bit_2_1
 bit_2_2
 bit_2_3
 mode_0_1
 mode_0_2
 x_0_0_1
 x_0_0_2
 x_0_1_0
 x_0_1_2
 x_0_2_0
 x_0_2_1
 z_0_1
 z_0_2
End
